NAME : S-U-6-8.2417.tour
COMMENT : Length = 2417
COMMENT : Found by LKH [Keld Helsgaun] Thu May 17 23:18:23 2018
TYPE : TOUR
DIMENSION : 31
TOUR_SECTION
1
29
12
7
9
15
13
6
24
4
10
3
16
8
11
26
14
2
5
31
18
27
25
21
22
28
20
30
19
23
17
-1
EOF
